p cnf 286 989
1 2 3 4 0
-1 -2 0
-1 -3 0
-1 -4 0
-2 -3 0
-2 -4 0
-3 -4 0
5 -6 -7 0
6 -5 -7 0
-5 -6 7 0
6 5 7 0
-1 -7 0
6 -8 -9 0
8 -6 -9 0
9 -6 -8 0
9 6 8 0
-2 9 0
-5 10 0
-8 10 0
5 8 -10 0
6 -10 -11 0
-6 10 -11 0
-6 -10 11 0
6 10 11 0
-3 11 0
5 12 0
8 12 0
-5 -8 -12 0
-6 12 -13 0
6 -12 -13 0
13 -12 -6 0
6 12 13 0
-4 -13 0
8 -14 -15 0
14 -8 -15 0
-8 -14 15 0
8 14 15 0
-1 -15 0
-5 14 -16 0
5 -14 -16 0
16 -14 -5 0
16 14 5 0
-2 16 0
14 -10 -17 0
10 -14 -17 0
-10 -14 17 0
14 10 17 0
-3 17 0
12 -14 -18 0
14 -12 -18 0
18 -12 -14 0
14 12 18 0
-4 -18 0
19 -20 -21 0
20 -19 -21 0
-19 -20 21 0
20 19 21 0
-1 -21 0
20 -22 -23 0
22 -20 -23 0
23 -20 -22 0
23 20 22 0
-2 23 0
-19 24 0
-22 24 0
-25 24 0
-26 24 0
-27 24 0
-28 24 0
-29 24 0
30 0
20 -24 -31 0
-20 24 -31 0
-20 -24 31 0
20 24 31 0
-3 31 0
19 32 0
22 32 0
25 32 0
26 32 0
27 32 0
28 32 0
29 32 0
-33 0
-20 32 -34 0
20 -32 -34 0
34 -32 -20 0
20 32 34 0
-4 -34 0
22 -35 -36 0
35 -22 -36 0
-22 -35 36 0
22 35 36 0
-1 -36 0
35 -25 -37 0
25 -35 -37 0
37 -35 -25 0
37 35 25 0
-2 37 0
-22 38 0
-25 38 0
-26 38 0
-27 38 0
-28 38 0
-29 38 0
22 25 26 27 28 29 -38 0
35 -38 -39 0
-35 38 -39 0
-35 -38 39 0
35 38 39 0
-3 39 0
22 40 0
25 40 0
26 40 0
27 40 0
28 40 0
29 40 0
-41 0
-35 40 -42 0
35 -40 -42 0
42 -40 -35 0
35 40 42 0
-4 -42 0
25 -43 -44 0
43 -25 -44 0
-25 -43 44 0
25 43 44 0
-1 -44 0
43 -26 -45 0
26 -43 -45 0
45 -43 -26 0
45 43 26 0
-2 45 0
-25 46 0
-26 46 0
-27 46 0
-28 46 0
-29 46 0
25 26 27 28 29 -46 0
43 -46 -47 0
-43 46 -47 0
-43 -46 47 0
43 46 47 0
-3 47 0
25 48 0
26 48 0
27 48 0
28 48 0
29 48 0
-49 0
-43 48 -50 0
43 -48 -50 0
50 -48 -43 0
43 48 50 0
-4 -50 0
26 -51 -52 0
51 -26 -52 0
-26 -51 52 0
26 51 52 0
-1 -52 0
51 -27 -53 0
27 -51 -53 0
53 -51 -27 0
53 51 27 0
-2 53 0
-26 54 0
-27 54 0
-28 54 0
-29 54 0
26 27 28 29 -54 0
51 -54 -55 0
-51 54 -55 0
-51 -54 55 0
51 54 55 0
-3 55 0
26 56 0
27 56 0
28 56 0
29 56 0
-57 0
-51 56 -58 0
51 -56 -58 0
58 -56 -51 0
51 56 58 0
-4 -58 0
27 -59 -60 0
59 -27 -60 0
-27 -59 60 0
27 59 60 0
-1 -60 0
59 -28 -61 0
28 -59 -61 0
61 -59 -28 0
61 59 28 0
-2 61 0
59 -54 -62 0
54 -59 -62 0
-54 -59 62 0
59 54 62 0
-3 62 0
56 -59 -63 0
59 -56 -63 0
63 -56 -59 0
59 56 63 0
-4 -63 0
28 -64 -65 0
64 -28 -65 0
-28 -64 65 0
28 64 65 0
-1 -65 0
64 -29 -66 0
29 -64 -66 0
66 -64 -29 0
66 64 29 0
-2 66 0
64 -54 -67 0
54 -64 -67 0
-54 -64 67 0
64 54 67 0
-3 67 0
56 -64 -68 0
64 -56 -68 0
68 -56 -64 0
64 56 68 0
-4 -68 0
29 -69 -70 0
69 -29 -70 0
-29 -69 70 0
29 69 70 0
-1 -70 0
-26 69 -71 0
26 -69 -71 0
71 -69 -26 0
71 69 26 0
-2 71 0
69 -54 -72 0
54 -69 -72 0
-54 -69 72 0
69 54 72 0
-3 72 0
56 -69 -73 0
69 -56 -73 0
73 -56 -69 0
69 56 73 0
-4 -73 0
74 -75 -76 0
75 -74 -76 0
-74 -75 76 0
75 74 76 0
-1 -76 0
75 -77 -78 0
77 -75 -78 0
78 -75 -77 0
78 75 77 0
-2 78 0
-74 79 0
-77 79 0
-80 79 0
-81 79 0
-82 79 0
-83 79 0
-84 79 0
85 0
75 -79 -86 0
-75 79 -86 0
-75 -79 86 0
75 79 86 0
-3 86 0
74 87 0
77 87 0
80 87 0
81 87 0
82 87 0
83 87 0
84 87 0
-88 0
-75 87 -89 0
75 -87 -89 0
89 -87 -75 0
75 87 89 0
-4 -89 0
77 -90 -91 0
90 -77 -91 0
-77 -90 91 0
77 90 91 0
-1 -91 0
90 -80 -92 0
80 -90 -92 0
92 -90 -80 0
92 90 80 0
-2 92 0
-77 93 0
-80 93 0
-81 93 0
-82 93 0
-83 93 0
-84 93 0
94 0
90 -93 -95 0
-90 93 -95 0
-90 -93 95 0
90 93 95 0
-3 95 0
77 96 0
80 96 0
81 96 0
82 96 0
83 96 0
84 96 0
-97 0
-90 96 -98 0
90 -96 -98 0
98 -96 -90 0
90 96 98 0
-4 -98 0
80 -99 -100 0
99 -80 -100 0
-80 -99 100 0
80 99 100 0
-1 -100 0
99 -81 -101 0
81 -99 -101 0
101 -99 -81 0
101 99 81 0
-2 101 0
-80 102 0
-81 102 0
-82 102 0
-83 102 0
-84 102 0
80 81 82 83 84 -102 0
99 -102 -103 0
-99 102 -103 0
-99 -102 103 0
99 102 103 0
-3 103 0
80 104 0
81 104 0
82 104 0
83 104 0
84 104 0
-105 0
-99 104 -106 0
99 -104 -106 0
106 -104 -99 0
99 104 106 0
-4 -106 0
81 -107 -108 0
107 -81 -108 0
-81 -107 108 0
81 107 108 0
-1 -108 0
107 -82 -109 0
82 -107 -109 0
109 -107 -82 0
109 107 82 0
-2 109 0
-81 110 0
-82 110 0
-83 110 0
-84 110 0
81 82 83 84 -110 0
107 -110 -111 0
-107 110 -111 0
-107 -110 111 0
107 110 111 0
-3 111 0
81 112 0
82 112 0
83 112 0
84 112 0
-113 0
-107 112 -114 0
107 -112 -114 0
114 -112 -107 0
107 112 114 0
-4 -114 0
82 -115 -116 0
115 -82 -116 0
-82 -115 116 0
82 115 116 0
-1 -116 0
115 -83 -117 0
83 -115 -117 0
117 -115 -83 0
117 115 83 0
-2 117 0
115 -110 -118 0
110 -115 -118 0
-110 -115 118 0
115 110 118 0
-3 118 0
112 -115 -119 0
115 -112 -119 0
119 -112 -115 0
115 112 119 0
-4 -119 0
83 -120 -121 0
120 -83 -121 0
-83 -120 121 0
83 120 121 0
-1 -121 0
120 -84 -122 0
84 -120 -122 0
122 -120 -84 0
122 120 84 0
-2 122 0
120 -110 -123 0
110 -120 -123 0
-110 -120 123 0
120 110 123 0
-3 123 0
112 -120 -124 0
120 -112 -124 0
124 -112 -120 0
120 112 124 0
-4 -124 0
84 -125 -126 0
125 -84 -126 0
-84 -125 126 0
84 125 126 0
-1 -126 0
-81 125 -127 0
81 -125 -127 0
127 -125 -81 0
127 125 81 0
-2 127 0
125 -110 -128 0
110 -125 -128 0
-110 -125 128 0
125 110 128 0
-3 128 0
112 -125 -129 0
125 -112 -129 0
129 -112 -125 0
125 112 129 0
-4 -129 0
130 -131 -132 0
131 -130 -132 0
-130 -131 132 0
131 130 132 0
-1 -132 0
131 -133 -134 0
133 -131 -134 0
134 -131 -133 0
134 131 133 0
-2 134 0
-130 135 0
-133 135 0
-136 135 0
130 133 136 -135 0
131 -135 -137 0
-131 135 -137 0
-131 -135 137 0
131 135 137 0
-3 137 0
130 138 0
133 138 0
136 138 0
-130 -133 -136 -138 0
-131 138 -139 0
131 -138 -139 0
139 -138 -131 0
131 138 139 0
-4 -139 0
133 -140 -141 0
140 -133 -141 0
-133 -140 141 0
133 140 141 0
-1 -141 0
140 -136 -142 0
136 -140 -142 0
142 -140 -136 0
142 140 136 0
-2 142 0
-133 143 0
-136 143 0
133 136 -143 0
140 -143 -144 0
-140 143 -144 0
-140 -143 144 0
140 143 144 0
-3 144 0
133 145 0
136 145 0
-133 -136 -145 0
-140 145 -146 0
140 -145 -146 0
146 -145 -140 0
140 145 146 0
-4 -146 0
136 -147 -148 0
147 -136 -148 0
-136 -147 148 0
136 147 148 0
-1 -148 0
147 -136 -149 0
136 -147 -149 0
149 -147 -136 0
149 147 136 0
-2 149 0
-3 149 0
-4 149 0
150 -151 -152 0
151 -150 -152 0
-150 -151 152 0
151 150 152 0
-1 -152 0
151 -153 -154 0
153 -151 -154 0
154 -151 -153 0
154 151 153 0
-2 154 0
-150 155 0
-153 155 0
-156 155 0
-157 155 0
-158 155 0
150 153 156 157 158 -155 0
151 -155 -159 0
-151 155 -159 0
-151 -155 159 0
151 155 159 0
-3 159 0
150 160 0
153 160 0
156 160 0
157 160 0
158 160 0
-161 0
-151 160 -162 0
151 -160 -162 0
162 -160 -151 0
151 160 162 0
-4 -162 0
153 -163 -164 0
163 -153 -164 0
-153 -163 164 0
153 163 164 0
-1 -164 0
163 -156 -165 0
156 -163 -165 0
165 -163 -156 0
165 163 156 0
-2 165 0
-153 166 0
-156 166 0
-157 166 0
-158 166 0
153 156 157 158 -166 0
163 -166 -167 0
-163 166 -167 0
-163 -166 167 0
163 166 167 0
-3 167 0
153 168 0
156 168 0
157 168 0
158 168 0
-169 0
-163 168 -170 0
163 -168 -170 0
170 -168 -163 0
163 168 170 0
-4 -170 0
156 -171 -172 0
171 -156 -172 0
-156 -171 172 0
156 171 172 0
-1 -172 0
171 -157 -173 0
157 -171 -173 0
173 -171 -157 0
173 171 157 0
-2 173 0
-156 174 0
-157 174 0
-158 174 0
156 157 158 -174 0
171 -174 -175 0
-171 174 -175 0
-171 -174 175 0
171 174 175 0
-3 175 0
156 176 0
157 176 0
158 176 0
-156 -157 -158 -176 0
-171 176 -177 0
171 -176 -177 0
177 -176 -171 0
171 176 177 0
-4 -177 0
157 -178 -179 0
178 -157 -179 0
-157 -178 179 0
157 178 179 0
-1 -179 0
178 -158 -180 0
158 -178 -180 0
180 -178 -158 0
180 178 158 0
-2 180 0
178 -174 -181 0
174 -178 -181 0
-174 -178 181 0
178 174 181 0
-3 181 0
176 -178 -182 0
178 -176 -182 0
182 -176 -178 0
178 176 182 0
-4 -182 0
158 -183 -184 0
183 -158 -184 0
-158 -183 184 0
158 183 184 0
-1 -184 0
-156 183 -185 0
156 -183 -185 0
185 -183 -156 0
185 183 156 0
-2 185 0
183 -174 -186 0
174 -183 -186 0
-174 -183 186 0
183 174 186 0
-3 186 0
176 -183 -187 0
183 -176 -187 0
187 -176 -183 0
183 176 187 0
-4 -187 0
188 -189 -190 0
189 -188 -190 0
-188 -189 190 0
189 188 190 0
-1 -190 0
189 -191 -192 0
191 -189 -192 0
192 -189 -191 0
192 189 191 0
-2 192 0
-5 193 0
-8 193 0
-188 193 0
-191 193 0
-194 193 0
-195 193 0
5 8 188 191 194 195 -193 0
189 -193 -196 0
-189 193 -196 0
-189 -193 196 0
189 193 196 0
-3 196 0
5 197 0
8 197 0
188 197 0
191 197 0
194 197 0
195 197 0
-198 0
-189 197 -199 0
189 -197 -199 0
199 -197 -189 0
189 197 199 0
-4 -199 0
191 -200 -201 0
200 -191 -201 0
-191 -200 201 0
191 200 201 0
-1 -201 0
200 -194 -202 0
194 -200 -202 0
202 -200 -194 0
202 200 194 0
-2 202 0
-5 203 0
-8 203 0
-191 203 0
-194 203 0
-195 203 0
5 8 191 194 195 -203 0
200 -203 -204 0
-200 203 -204 0
-200 -203 204 0
200 203 204 0
-3 204 0
5 205 0
8 205 0
191 205 0
194 205 0
195 205 0
-206 0
-200 205 -207 0
200 -205 -207 0
207 -205 -200 0
200 205 207 0
-4 -207 0
194 -208 -209 0
208 -194 -209 0
-194 -208 209 0
194 208 209 0
-1 -209 0
208 -195 -210 0
195 -208 -210 0
210 -208 -195 0
210 208 195 0
-2 210 0
-5 211 0
-8 211 0
-194 211 0
-195 211 0
5 8 194 195 -211 0
208 -211 -212 0
-208 211 -212 0
-208 -211 212 0
208 211 212 0
-3 212 0
5 213 0
8 213 0
194 213 0
195 213 0
-214 0
-208 213 -215 0
208 -213 -215 0
215 -213 -208 0
208 213 215 0
-4 -215 0
195 -216 -217 0
216 -195 -217 0
-195 -216 217 0
195 216 217 0
-1 -217 0
-5 216 -218 0
5 -216 -218 0
218 -216 -5 0
218 216 5 0
-2 218 0
-5 219 0
-8 219 0
-195 219 0
5 8 195 -219 0
216 -219 -220 0
-216 219 -220 0
-216 -219 220 0
216 219 220 0
-3 220 0
5 221 0
8 221 0
195 221 0
-5 -8 -195 -221 0
-216 221 -222 0
216 -221 -222 0
222 -221 -216 0
216 221 222 0
-4 -222 0
223 -224 -225 0
224 -223 -225 0
-223 -224 225 0
224 223 225 0
-1 -225 0
224 -226 -227 0
226 -224 -227 0
227 -224 -226 0
227 224 226 0
-2 227 0
-156 228 0
-157 228 0
-158 228 0
-223 228 0
-226 228 0
-229 228 0
-230 228 0
231 0
224 -228 -232 0
-224 228 -232 0
-224 -228 232 0
224 228 232 0
-3 232 0
156 233 0
157 233 0
158 233 0
223 233 0
226 233 0
229 233 0
230 233 0
-234 0
-224 233 -235 0
224 -233 -235 0
235 -233 -224 0
224 233 235 0
-4 -235 0
226 -236 -237 0
236 -226 -237 0
-226 -236 237 0
226 236 237 0
-1 -237 0
236 -229 -238 0
229 -236 -238 0
238 -236 -229 0
238 236 229 0
-2 238 0
-156 239 0
-157 239 0
-158 239 0
-226 239 0
-229 239 0
-230 239 0
240 0
236 -239 -241 0
-236 239 -241 0
-236 -239 241 0
236 239 241 0
-3 241 0
156 242 0
157 242 0
158 242 0
226 242 0
229 242 0
230 242 0
-243 0
-236 242 -244 0
236 -242 -244 0
244 -242 -236 0
236 242 244 0
-4 -244 0
229 -245 -246 0
245 -229 -246 0
-229 -245 246 0
229 245 246 0
-1 -246 0
245 -230 -247 0
230 -245 -247 0
247 -245 -230 0
247 245 230 0
-2 247 0
-156 248 0
-157 248 0
-158 248 0
-229 248 0
-230 248 0
156 157 158 229 230 -248 0
245 -248 -249 0
-245 248 -249 0
-245 -248 249 0
245 248 249 0
-3 249 0
156 250 0
157 250 0
158 250 0
229 250 0
230 250 0
-251 0
-245 250 -252 0
245 -250 -252 0
252 -250 -245 0
245 250 252 0
-4 -252 0
230 -253 -254 0
253 -230 -254 0
-230 -253 254 0
230 253 254 0
-1 -254 0
-158 253 -255 0
158 -253 -255 0
255 -253 -158 0
255 253 158 0
-2 255 0
-156 256 0
-157 256 0
-158 256 0
-230 256 0
156 157 158 230 -256 0
253 -256 -257 0
-253 256 -257 0
-253 -256 257 0
253 256 257 0
-3 257 0
156 258 0
157 258 0
158 258 0
230 258 0
-259 0
-253 258 -260 0
253 -258 -260 0
260 -258 -253 0
253 258 260 0
-4 -260 0
261 -262 -263 0
262 -261 -263 0
-261 -262 263 0
262 261 263 0
-1 -263 0
262 -264 -265 0
264 -262 -265 0
265 -262 -264 0
265 262 264 0
-2 265 0
-5 266 0
-8 266 0
-261 266 0
-264 266 0
-267 266 0
5 8 261 264 267 -266 0
262 -266 -268 0
-262 266 -268 0
-262 -266 268 0
262 266 268 0
-3 268 0
5 269 0
8 269 0
261 269 0
264 269 0
267 269 0
-270 0
-262 269 -271 0
262 -269 -271 0
271 -269 -262 0
262 269 271 0
-4 -271 0
264 -272 -273 0
272 -264 -273 0
-264 -272 273 0
264 272 273 0
-1 -273 0
272 -267 -274 0
267 -272 -274 0
274 -272 -267 0
274 272 267 0
-2 274 0
-5 275 0
-8 275 0
-264 275 0
-267 275 0
5 8 264 267 -275 0
272 -275 -276 0
-272 275 -276 0
-272 -275 276 0
272 275 276 0
-3 276 0
5 277 0
8 277 0
264 277 0
267 277 0
-278 0
-272 277 -279 0
272 -277 -279 0
279 -277 -272 0
272 277 279 0
-4 -279 0
267 -280 -281 0
280 -267 -281 0
-267 -280 281 0
267 280 281 0
-1 -281 0
-8 280 -282 0
8 -280 -282 0
282 -280 -8 0
282 280 8 0
-2 282 0
-5 283 0
-8 283 0
-267 283 0
5 8 267 -283 0
280 -283 -284 0
-280 283 -284 0
-280 -283 284 0
280 283 284 0
-3 284 0
5 285 0
8 285 0
267 285 0
-5 -8 -267 -285 0
-280 285 -286 0
280 -285 -286 0
286 -285 -280 0
280 285 286 0
-4 -286 0
6 0
20 0
75 0
99 0
131 0
-147 0
151 0
189 0
224 0
262 0
